NAME : XML100_3234_16
DIMENSION : 101
NB_CLUSTERS : 6
CLUSTERING_ALG : DBSCAN
CLUSTERING_PARAMS : eps(102), minSamples(3)
CLUSTERS
1 0
2 1 3 6 12 13 16 22 23 25 28 31 41 43 44 48 51 52 53 61 62 63 65 66 69 70 71 74 75 76 78 84 85 86 89 90 93 94 95 96 98 99
3 2 21 29 34 36 38 42 47 49 58 79 80 100
4 4 5 11 18 19 20 32 33 45 50 59 60 64 72 82 83 87
5 7 8 10 15 24 26 35 39 54 55 56 57 73 88 91 92
6 9 14 17 27 30 37 40 46 67 68 77 81 97
EOF